Maximize
score: + 7649.171 c0 + 2038.62 c1 + 764.503 c2 + 76.309 c3 + 155.483 c4 + 91.781 c5 + 70.371 c6 + 184.187 c7 + 36.11 c8 + 96.965 c9 + 78.314 c10 + 75.996 c11 + 90.301 c12 + 105.54 c13 + 23.528 c14 + 100.076 c15 + 60.755 c16 + 51.606 c17 + 11.214 c18 + 20.347 c19 + 3.425 c20 + 38.956 c21 + 20.786 c22 + 62.754 c23 + 96.965 c24 + 30.895 c25 + 14.31 c26 + 0.18 c27 + 26.588 c28 + 6.424 c29 + 37.121 c30 + 48.94 c31 + 101.599 c32 + 9.659 c33 + 2.246 c34 + 22.648 c35 + 9.112 c36 + 13.407 c37 + 136.3 c38 + 93.193 c39 + 83.027 c40 + 37.284 c41 + 7.925 c42 + 51.066 c43 + 3.554 c44 + 161.551 c45 + 4.816 c46 + 29.514 c47 + 416.845 c48 + 178.977 c49 + 269.717 c50 + 0.376 c51 + 477.646 c52 + 2.346 c53 + 225.833 c54 + 459.076 c55 + 13.548 c56 + 12.23 c57 + 6.876 c58 + 2.59 c59 + 7.431 c60 + 9.214 c61 + 24.052 c62 + 21.611 c63 + 6.362 c64 + 16.286 c65 + 4.996 c66 + 0.012 c67 + 34.001 c68 + 57.783 c69 + 2.522 c70 + 2.141 c71 + 29.927 c72 + 6.048 c73 + 21.395 c74 + 8.643 c75 + 1.636 c76 + 5.908 c77 + 33.166 c78 + 0.373 c79 + 51.716 c80 + 19.683 c81 + 3.502 c82 + 13.914 c83 + 6.806 c84 + 16.869 c85 + 50.374 c86 + 2.072 c87 + 121.157 c88 + 35.265 c89 + 17.983 c90 + 12.285 c91 + 23.528 c92 + 10.36 c93 + 126.503 c94 + 7.136 c95 + 2.238 c96 + 3.985 c97 + 50.078 c98 + 4.504 c99 + 91.302 c100 + 7.903 c101 + 0.393 c102 + 8.721 c103 + 11.243 c104 + 23.137 c105 + 6.364 c106 + 6.58 c107 + 8.009 c108 + 0.426 c109 + 36.997 c110 + 7.048 c111 + 1.215 c112 + 11.229 c113 + 21.023 c114 + 2.981 c115 + 6.249 c116 + 26.531 c117 + 3.453 c118 + 35.226 c119 + 4.487 c120 + 101.138 c121 + 141.149 c122 + 7.223 c123 + 2.525 c124 + 74.634 c125 + 13.177 c126 + 0.666 c127 + 40.468 c128 + 101.054 c129 + 209.055 c130 + 53.21 c131 + 10.292 c132 + 3.482 c133 + 27.831 c134 + 8.983 c135 + 31.874 c136 + 18.34 c137 + 20.961 c138 + 1.245 c139 + 16.093 c140 + 9.222 c141 + 6.02 c142 + 0.452 c143 + 19.644 c144 + 3.45 c145 + 14.34 c146 + 7.818 c147 + 9.896 c148 + 10.665 c149 + 7.388 c150 + 205.513 c151 + 1.511 c152 + 32.818 c153 + 5.604 c154 + 13.42 c155 + 5.389 c156 + 6.015 c157 + 32.046 c158 + 25.954 c159 + 242.072 c160 + 175.293 c161 + 3.746 c162 + 7.227 c163 + 3.5 c164 + 3.664 c165

Subject To
index_0: s69 + s71 + s73 + s76 + s80 + s81 + s83 + s87 - c0 >= 0
index_1: s15 + s16 + s70 + s72 + s74 + s76 + s80 + s83 + s87 - c1 >= 0
index_2: s20 + s33 + s38 + s45 + s46 + s59 + s64 + s69 + s70 + s72 + s73 + s75 + s76 + s77 + s79 + s80 + s83 + s84 + s85 + s87 - c2 >= 0
index_3: s24 + s25 + s68 + s69 + s73 + s75 + s76 + s78 + s82 + s83 + s84 + s85 - c3 >= 0
index_4: s34 + s37 + s39 + s59 + s63 + s65 + s66 - c4 >= 0
index_5: s26 + s71 + s72 + s81 + s82 + s88 - c5 >= 0
index_6: s22 + s23 + s27 + s69 + s70 + s78 + s79 + s80 - c6 >= 0
index_7: s15 + s16 + s70 + s72 + s74 + s76 + s80 + s83 + s87 - c7 >= 0
index_8: s15 + s16 + s20 + s70 + s72 + s74 + s76 + s80 + s83 + s87 + s89 - c8 >= 0
index_9: s18 + s19 + s43 + s45 + s93 + s94 - c9 >= 0
index_10: s15 + s16 + s70 + s72 + s74 + s76 + s80 + s83 + s87 - c10 >= 0
index_11: s25 + s69 + s73 + s75 + s76 + s78 + s80 + s82 + s84 + s85 - c11 >= 0
index_12: s8 + s21 + s26 + s36 + s38 + s39 + s47 + s51 + s63 + s64 + s65 + s66 + s69 + s80 - c12 >= 0
index_13: s22 + s25 + s68 + s69 + s73 + s74 + s75 + s76 + s77 + s78 + s79 + s80 + s82 + s83 + s84 + s85 + s92 - c13 >= 0
index_14: s22 + s25 + s68 + s69 + s73 + s74 + s75 + s77 + s78 + s79 + s80 + s82 + s83 + s84 + s85 + s92 - c14 >= 0
index_15: s37 + s40 + s63 + s68 + s76 + s87 - c15 >= 0
index_16: s15 + s16 + s70 + s72 + s74 + s76 + s80 + s83 + s87 + s91 + s93 - c16 >= 0
index_17: s35 + s37 + s61 + s62 + s63 - c17 >= 0
index_18: s16 + s19 + s28 + s40 + s45 + s56 + s67 + s68 + s71 + s72 + s74 + s76 + s77 + s82 + s83 + s87 + s88 + s92 + s94 - c18 >= 0
index_19: s4 + s16 + s19 + s28 + s41 + s45 + s56 + s88 + s90 - c19 >= 0
index_20: s23 + s26 + s32 + s35 + s37 + s39 + s49 + s50 + s58 + s61 + s62 + s63 + s66 - c20 >= 0
index_21: s4 + s16 + s19 + s41 + s45 + s56 + s88 + s90 - c21 >= 0
index_22: s18 + s19 + s43 + s45 + s93 + s94 - c22 >= 0
index_23: s26 + s35 + s37 + s54 + s62 + s63 + s74 + s76 + s83 + s87 - c23 >= 0
index_24: s16 + s36 + s38 + s39 + s63 + s64 + s67 - c24 >= 0
index_25: s4 + s16 + s19 + s28 + s41 + s45 + s56 + s88 + s90 - c25 >= 0
index_26: s4 + s16 + s19 + s28 + s41 + s45 + s56 + s88 + s90 - c26 >= 0
index_27: s12 + s16 + s22 + s27 + s29 + s33 + s35 + s38 + s40 + s48 + s56 + s59 + s61 + s65 + s68 - c27 >= 0
index_28: s19 + s26 + s34 + s39 + s53 + s60 + s65 + s66 - c28 >= 0
index_29: s20 + s21 + s26 + s28 + s30 + s39 + s46 + s47 + s51 + s54 + s56 + s57 + s66 + s68 + s69 + s71 + s77 + s80 + s81 - c29 >= 0
index_30: s16 + s18 + s19 + s22 + s24 + s26 + s29 + s30 + s36 + s63 + s68 + s69 + s72 + s77 + s79 + s80 + s82 + s88 + s89 + s91 + s92 + s94 - c30 >= 0
index_31: s89 + s91 + s93 + s94 - c31 >= 0
index_32: s34 + s37 + s39 + s59 + s63 + s65 + s66 - c32 >= 0
index_33: s35 + s36 + s37 + s38 + s61 + s62 + s63 + s64 - c33 >= 0
index_34: s33 + s34 + s58 + s59 + s60 - c34 >= 0
index_35: s36 + s63 + s73 + s74 + s82 + s83 - c35 >= 0
index_36: s26 + s27 + s32 + s54 + s57 - c36 >= 0
index_37: s26 + s27 + s31 + s53 + s54 + s57 - c37 >= 0
index_38: s16 + s36 + s38 + s39 + s63 + s64 + s67 - c38 >= 0
index_39: s8 + s11 + s100 + s101 - c39 >= 0
index_40: s16 + s26 + s50 + s68 + s69 + s71 + s72 + s75 + s77 + s78 + s79 + s81 + s82 + s85 + s95 + s96 + s97 - c40 >= 0
index_41: s16 + s19 + s25 + s45 + s69 + s71 + s72 + s73 + s75 + s78 + s82 + s85 + s89 + s94 - c41 >= 0
index_42: s16 + s19 + s39 + s40 + s68 + s77 + s90 + s96 - c42 >= 0
index_43: s36 + s63 + s73 + s74 + s82 + s83 - c43 >= 0
index_44: s5 + s6 + s7 + s11 + s12 + s96 + s102 + s103 + s104 + s107 + s108 - c44 >= 0
index_45: s12 + s13 + s15 + s93 + s95 + s97 - c45 >= 0
index_46: s3 + s4 + s100 + s101 + s102 + s104 - c46 >= 0
index_47: s6 + s7 + s11 + s14 + s15 + s16 + s17 + s18 + s19 + s21 + s22 + s23 + s27 + s28 + s29 + s32 + s33 + s34 + s36 + s38 + s39 + s40 + s41 + s43 + s50 + s58 + s59 + s60 + s62 + s63 + s65 + s66 + s68 + s69 + s71 + s77 + s78 + s81 + s87 + s89 + s91 + s92 + s93 + s94 + s96 + s98 + s100 + s104 + s107 - c47 >= 0
index_48: s25 + s26 + s70 + s71 + s72 + s73 + s76 + s80 + s81 + s82 + s83 + s87 - c48 >= 0
index_49: s36 + s37 + s39 + s63 + s64 + s67 - c49 >= 0
index_50: s39 + s40 + s67 + s68 + s74 + s76 + s83 + s87 - c50 >= 0
index_51: s15 + s69 + s78 + s92 + s94 + s96 + s97 - c51 >= 0
index_52: s45 + s47 + s49 + s50 + s52 + s53 + s54 + s56 + s57 - c52 >= 0
index_53: s17 + s18 + s19 + s35 + s43 + s45 + s61 + s62 - c53 >= 0
index_54: s1 + s2 + s3 + s4 + s5 + s9 + s10 + s12 + s35 + s41 + s43 + s44 + s56 + s84 + s98 + s101 + s102 + s104 + s105 + s106 + s107 - c54 >= 0
index_55: s14 + s26 + s30 + s58 + s64 + s68 + s94 - c55 >= 0
index_56: s15 + s16 + s20 + s62 + s70 + s72 + s74 + s76 + s80 + s83 + s87 - c56 >= 0
index_57: s42 - c57 >= 0
index_58: s16 + s20 + s42 + s45 - c58 >= 0
index_59: s14 + s16 + s17 + s38 + s42 - c59 >= 0
index_60: s70 + s72 + s73 + s76 + s80 + s82 + s83 + s87 + s96 + s97 - c60 >= 0
index_61: s17 + s38 + s65 - c61 >= 0
index_62: s17 + s38 + s65 - c62 >= 0
index_63: s15 + s99 + s100 - c63 >= 0
index_64: s69 + s71 + s72 + s73 + s75 + s78 + s79 + s82 + s85 - c64 >= 0
index_65: s16 + s36 + s38 + s39 + s63 + s64 + s67 - c65 >= 0
index_66: s19 + s44 - c66 >= 0
index_67: s12 + s88 + s89 + s94 + s95 + s96 - c67 >= 0
index_68: s69 + s73 + s75 + s80 + s82 + s85 - c68 >= 0
index_69: s27 + s31 + s41 + s54 + s57 + s68 + s94 - c69 >= 0
index_70: s20 + s22 + s23 + s26 + s28 + s30 + s32 + s33 + s36 + s39 + s40 + s53 + s56 + s59 + s63 + s66 + s68 + s69 + s77 + s79 + s87 + s90 - c70 >= 0
index_71: s16 + s22 + s28 + s48 + s56 + s62 + s68 + s77 + s95 - c71 >= 0
index_72: s6 + s7 + s15 + s16 + s101 - c72 >= 0
index_73: s14 + s91 - c73 >= 0
index_74: s22 + s25 + s26 + s32 + s37 + s58 + s63 + s68 + s69 + s73 + s74 + s75 + s76 + s77 + s78 + s79 + s80 + s82 + s83 + s84 + s85 + s87 + s92 - c74 >= 0
index_75: s68 + s95 + s96 - c75 >= 0
index_76: s90 + s93 + s100 + s107 - c76 >= 0
index_77: s69 + s75 + s78 + s85 - c77 >= 0
index_78: s2 - c78 >= 0
index_79: s3 + s10 - c79 >= 0
index_80: s43 + s48 + s49 + s50 + s54 + s56 + s57 - c80 >= 0
index_81: s16 + s27 + s30 + s31 + s32 + s62 - c81 >= 0
index_82: s0 + s1 + s2 + s3 + s98 + s99 + s100 - c82 >= 0
index_83: s98 + s100 - c83 >= 0
index_84: s98 + s99 - c84 >= 0
index_85: s17 + s21 + s23 + s26 + s27 + s29 + s35 + s62 + s69 + s70 + s71 + s72 + s78 + s80 + s81 + s82 - c85 >= 0
index_86: s22 + s26 + s30 + s49 + s54 + s57 - c86 >= 0
index_87: s14 + s15 + s33 + s58 + s91 + s93 + s95 - c87 >= 0
index_88: s3 + s73 + s75 + s82 + s85 + s89 - c88 >= 0
index_89: s32 + s34 + s36 + s58 + s59 + s60 + s63 + s70 + s72 + s81 + s82 + s90 + s93 - c89 >= 0
index_90: s35 + s37 + s40 + s62 + s63 + s74 + s76 + s83 + s87 + s89 + s90 - c90 >= 0
index_91: s40 + s59 + s68 - c91 >= 0
index_92: s17 + s19 + s21 + s22 + s23 + s24 + s26 + s27 + s29 + s30 + s32 + s34 + s35 + s36 + s37 + s38 + s39 + s41 + s58 + s59 + s60 + s63 + s65 + s66 + s67 + s68 + s69 + s78 + s94 - c92 >= 0
index_93: s40 + s68 + s97 - c93 >= 0
index_94: s37 + s40 + s63 + s68 + s76 + s87 - c94 >= 0
index_95: s39 + s40 + s66 + s68 + s75 - c95 >= 0
index_96: s89 + s93 + s94 + s96 + s97 - c96 >= 0
index_97: s24 + s30 + s38 + s65 + s68 + s77 - c97 >= 0
index_98: s14 + s94 + s107 - c98 >= 0
index_99: s22 + s23 + s26 + s27 + s29 + s30 + s47 + s48 + s49 + s52 + s54 + s56 + s92 - c99 >= 0
index_100: s49 + s50 + s52 - c100 >= 0
index_101: s101 + s107 - c101 >= 0
index_102: s9 + s11 + s12 + s106 - c102 >= 0
index_103: s4 + s5 + s6 + s7 + s8 + s11 + s12 + s93 + s97 + s101 + s104 + s107 - c103 >= 0
index_104: s45 + s47 + s48 + s49 + s50 + s51 + s52 + s53 + s54 + s56 + s57 - c104 >= 0
index_105: s50 + s52 - c105 >= 0
index_106: s41 + s68 + s69 + s78 + s88 + s90 + s91 + s98 - c106 >= 0
index_107: s16 + s93 + s95 - c107 >= 0
index_108: s22 + s27 + s36 + s39 + s40 + s63 + s66 + s67 + s68 + s70 + s71 + s81 - c108 >= 0
index_109: s69 + s72 + s75 + s77 + s79 + s82 + s85 + s89 + s91 + s94 + s96 - c109 >= 0
index_110: s15 + s16 + s19 + s28 + s44 + s56 + s88 + s89 + s91 + s92 + s93 + s104 - c110 >= 0
index_111: s9 + s103 + s104 + s107 - c111 >= 0
index_112: s104 + s105 + s106 - c112 >= 0
index_113: s26 + s30 + s54 + s57 - c113 >= 0
index_114: s34 + s35 + s36 + s59 + s60 + s63 - c114 >= 0
index_115: s4 + s19 + s21 + s45 + s88 + s90 + s91 - c115 >= 0
index_116: s20 + s39 + s46 + s66 + s75 + s84 - c116 >= 0
index_117: s16 + s24 + s25 + s36 + s50 + s63 + s68 + s69 + s70 + s72 + s75 + s77 + s79 + s80 + s82 + s84 + s96 - c117 >= 0
index_118: s8 + s12 + s14 + s93 + s97 + s98 + s107 - c118 >= 0
index_119: s12 + s13 + s14 + s15 + s93 + s97 - c119 >= 0
index_120: s23 + s27 + s34 + s36 + s39 + s59 + s60 + s63 + s64 + s66 + s69 + s70 + s71 + s72 + s78 + s79 + s80 + s81 - c120 >= 0
index_121: s0 + s5 + s6 + s10 + s11 + s12 + s16 + s34 + s71 + s76 + s81 + s87 + s89 + s90 + s93 + s94 + s95 + s96 + s98 + s101 + s104 + s107 - c121 >= 0
index_122: s20 + s22 + s26 + s30 + s32 + s33 + s35 + s36 + s39 + s46 + s48 + s58 + s63 + s65 + s66 + s68 + s77 - c122 >= 0
index_123: s32 + s58 - c123 >= 0
index_124: s16 + s20 + s32 + s33 + s34 + s45 + s58 + s59 + s63 - c124 >= 0
index_125: s36 + s39 + s53 + s67 - c125 >= 0
index_126: s5 + s6 + s11 + s102 + s103 + s107 - c126 >= 0
index_127: s20 + s36 + s46 + s57 - c127 >= 0
index_128: s19 + s25 + s32 + s33 + s35 + s40 + s50 + s58 + s61 + s63 + s68 + s72 + s75 + s77 + s79 + s82 + s84 - c128 >= 0
index_129: s21 + s22 + s23 + s29 + s33 + s34 + s35 + s36 + s39 + s47 + s56 + s58 + s59 + s60 + s62 + s65 + s66 - c129 >= 0
index_130: s63 + s64 + s69 + s71 + s75 + s79 + s80 + s81 + s84 - c130 >= 0
index_131: s12 + s13 + s15 + s93 + s97 - c131 >= 0
index_132: s47 + s48 + s49 + s53 + s56 + s57 + s66 - c132 >= 0
index_133: s22 + s29 + s47 + s54 + s56 - c133 >= 0
index_134: s3 + s5 + s6 + s7 + s11 + s12 + s91 + s97 + s103 + s105 + s107 - c134 >= 0
index_135: s8 + s9 + s10 - c135 >= 0
index_136: s7 + s9 - c136 >= 0
index_137: s34 + s35 + s59 + s60 - c137 >= 0
index_138: s8 + s12 + s13 + s15 + s93 + s97 + s107 - c138 >= 0
index_139: s26 + s34 + s53 + s60 + s66 + s94 - c139 >= 0
index_140: s10 + s105 + s108 - c140 >= 0
index_141: s38 + s63 + s64 - c141 >= 0
index_142: s32 + s33 + s34 + s37 + s39 + s58 + s59 + s63 + s65 + s66 - c142 >= 0
index_143: s17 + s19 + s20 + s22 + s26 + s28 + s29 + s30 + s32 + s34 + s36 + s38 + s45 + s46 + s47 + s48 + s53 + s54 + s56 + s57 + s58 + s60 + s65 + s66 - c143 >= 0
index_144: s40 + s68 + s72 + s76 + s82 + s87 + s93 - c144 >= 0
index_145: s15 + s16 + s88 + s100 + s101 - c145 >= 0
index_146: s9 + s10 + s11 + s89 + s104 + s107 - c146 >= 0
index_147: s3 + s16 + s31 + s71 + s73 + s74 + s81 + s82 + s83 + s91 + s96 - c147 >= 0
index_148: s7 + s10 + s11 + s97 + s102 + s107 - c148 >= 0
index_149: s5 + s10 + s14 + s102 + s107 - c149 >= 0
index_150: s7 + s10 + s11 + s102 + s103 + s107 + s108 - c150 >= 0
index_151: s6 + s11 + s12 + s89 + s103 - c151 >= 0
index_152: s36 + s39 + s64 + s66 - c152 >= 0
index_153: s3 - c153 >= 0
index_154: s3 + s7 + s8 + s91 - c154 >= 0
index_155: s102 + s103 + s107 - c155 >= 0
index_156: s32 + s38 + s58 + s64 - c156 >= 0
index_157: s38 + s64 - c157 >= 0
index_158: s6 + s7 + s11 + s103 - c158 >= 0
index_159: s7 + s11 + s102 + s103 - c159 >= 0
index_160: s15 + s89 + s93 + s98 + s107 - c160 >= 0
index_161: s25 + s27 + s28 + s36 + s50 + s54 + s56 + s63 + s69 + s73 + s74 + s78 + s82 + s83 + s102 + s108 - c161 >= 0
index_162: s7 + s9 + s10 + s11 + s12 + s101 + s102 + s103 + s104 + s105 + s108 - c162 >= 0
index_163: s10 + s11 + s104 + s107 + s108 - c163 >= 0
index_164: s10 + s101 + s107 - c164 >= 0
index_165: s15 + s16 + s71 + s72 + s81 + s82 + s96 - c165 >= 0
length: s0 + s1 + s2 + s3 + s4 + s5 + s6 + s7 + s8 + s9 + s10 + s11 + s12 + s13 + s14 + s15 + s16 + s17 + s18 + s19 + s20 + s21 + s22 + s23 + s24 + s25 + s26 + s27 + s28 + s29 + s30 + s31 + s32 + s33 + s34 + s35 + s36 + s37 + s38 + s39 + s40 + s41 + s42 + s43 + s44 + s45 + s46 + s47 + s48 + s49 + s50 + s51 + s52 + s53 + s54 + s55 + s56 + s57 + s58 + s59 + s60 + s61 + s62 + s63 + s64 + s65 + s66 + s67 + s68 + s69 + s70 + s71 + s72 + s73 + s74 + s75 + s76 + s77 + s78 + s79 + s80 + s81 + s82 + s83 + s84 + s85 + s86 + s87 + s88 + s89 + s90 + s91 + s92 + s93 + s94 + s95 + s96 + s97 + s98 + s99 + s100 + s101 + s102 + s103 + s104 + s105 + s106 + s107 + s108 <= 7



Binary
c0
c1
c2
c3
c4
c5
c6
c7
c8
c9
c10
c11
c12
c13
c14
c15
c16
c17
c18
c19
c20
c21
c22
c23
c24
c25
c26
c27
c28
c29
c30
c31
c32
c33
c34
c35
c36
c37
c38
c39
c40
c41
c42
c43
c44
c45
c46
c47
c48
c49
c50
c51
c52
c53
c54
c55
c56
c57
c58
c59
c60
c61
c62
c63
c64
c65
c66
c67
c68
c69
c70
c71
c72
c73
c74
c75
c76
c77
c78
c79
c80
c81
c82
c83
c84
c85
c86
c87
c88
c89
c90
c91
c92
c93
c94
c95
c96
c97
c98
c99
c100
c101
c102
c103
c104
c105
c106
c107
c108
c109
c110
c111
c112
c113
c114
c115
c116
c117
c118
c119
c120
c121
c122
c123
c124
c125
c126
c127
c128
c129
c130
c131
c132
c133
c134
c135
c136
c137
c138
c139
c140
c141
c142
c143
c144
c145
c146
c147
c148
c149
c150
c151
c152
c153
c154
c155
c156
c157
c158
c159
c160
c161
c162
c163
c164
c165
s0
s1
s2
s3
s4
s5
s6
s7
s8
s9
s10
s11
s12
s13
s14
s15
s16
s17
s18
s19
s20
s21
s22
s23
s24
s25
s26
s27
s28
s29
s30
s31
s32
s33
s34
s35
s36
s37
s38
s39
s40
s41
s42
s43
s44
s45
s46
s47
s48
s49
s50
s51
s52
s53
s54
s55
s56
s57
s58
s59
s60
s61
s62
s63
s64
s65
s66
s67
s68
s69
s70
s71
s72
s73
s74
s75
s76
s77
s78
s79
s80
s81
s82
s83
s84
s85
s86
s87
s88
s89
s90
s91
s92
s93
s94
s95
s96
s97
s98
s99
s100
s101
s102
s103
s104
s105
s106
s107
s108
End